13
-1 10 46 84 66 62 97 16 70 76 96 9 50
69 -1 92 73 44 61 69 82 26 22 91 61 3
11 77 -1 10 56 1 11 10 95 45 44 48 79
61 5 32 -1 63 7 72 2 36 32 24 34 6
37 8 45 83 -1 74 70 61 46 94 74 93 6
66 35 76 82 11 -1 16 99 2 27 21 91 16
87 7 1 65 75 61 -1 19 80 22 69 89 50
37 18 67 45 80 59 35 -1 27 74 71 82 24
98 57 31 25 67 97 13 49 -1 32 30 89 59
19 29 21 56 28 93 66 49 10 -1 7 28 31
52 57 28 22 84 21 2 68 39 55 -1 49 7
74 35 73 6 90 65 65 8 61 2 97 -1 43
99 20 36 77 76 60 53 54 25 94 67 70 -1
